c exact bi-apex structural outer CNF
c encoding_schema "p97-biapex-structural-outer-direct-cnf-v1"
c n 6
c omitted_apices [0, 1]
c bank "scratch/atail-force/two-cycle-schema-completion/bank_n12_n13_two_cycle_rotation_closed_292.json"
c bank_schema "p97-whole-carrier-kalmanson-transported-schema-bank-v1"
c bank_schema_count 292
c bank_epistemic_status "SOURCE_218_BANK_PLUS_FINITE_CARRIER_THEOREM_FAITHFUL_TWO_CYCLE_ROTATION_CLOSURE"
c embeddable_schema_count 156
c skipped_schema_count_core_larger_than_n 136
c schema_embedding_count 972
c variable_count 72
c clause_count 1352
c clause_block_counts {"blocker_at_least_one": 6, "blocker_at_most_one": 24, "blocker_forbidden": 16, "blocker_implies_source_membership": 20, "cyclic_alternation": 60, "pair_center_count_at_most_2": 60, "preloaded_schema_cut": 972, "row_at_least_4": 60, "row_at_most_4": 6, "row_intersection_at_most_2": 60, "row_nonself": 6, "strong_connectivity_outgoing_cut": 62}
c var 1 m_0_0
c var 2 m_0_1
c var 3 m_0_2
c var 4 m_0_3
c var 5 m_0_4
c var 6 m_0_5
c var 7 m_1_0
c var 8 m_1_1
c var 9 m_1_2
c var 10 m_1_3
c var 11 m_1_4
c var 12 m_1_5
c var 13 m_2_0
c var 14 m_2_1
c var 15 m_2_2
c var 16 m_2_3
c var 17 m_2_4
c var 18 m_2_5
c var 19 m_3_0
c var 20 m_3_1
c var 21 m_3_2
c var 22 m_3_3
c var 23 m_3_4
c var 24 m_3_5
c var 25 m_4_0
c var 26 m_4_1
c var 27 m_4_2
c var 28 m_4_3
c var 29 m_4_4
c var 30 m_4_5
c var 31 m_5_0
c var 32 m_5_1
c var 33 m_5_2
c var 34 m_5_3
c var 35 m_5_4
c var 36 m_5_5
c var 37 b_0_0
c var 38 b_0_1
c var 39 b_0_2
c var 40 b_0_3
c var 41 b_0_4
c var 42 b_0_5
c var 43 b_1_0
c var 44 b_1_1
c var 45 b_1_2
c var 46 b_1_3
c var 47 b_1_4
c var 48 b_1_5
c var 49 b_2_0
c var 50 b_2_1
c var 51 b_2_2
c var 52 b_2_3
c var 53 b_2_4
c var 54 b_2_5
c var 55 b_3_0
c var 56 b_3_1
c var 57 b_3_2
c var 58 b_3_3
c var 59 b_3_4
c var 60 b_3_5
c var 61 b_4_0
c var 62 b_4_1
c var 63 b_4_2
c var 64 b_4_3
c var 65 b_4_4
c var 66 b_4_5
c var 67 b_5_0
c var 68 b_5_1
c var 69 b_5_2
c var 70 b_5_3
c var 71 b_5_4
c var 72 b_5_5
p cnf 72 1352
-1 0
-2 -3 -4 -5 -6 0
2 3 0
2 4 0
2 5 0
2 6 0
3 4 0
3 5 0
3 6 0
4 5 0
4 6 0
5 6 0
-8 0
-7 -9 -10 -11 -12 0
7 9 0
7 10 0
7 11 0
7 12 0
9 10 0
9 11 0
9 12 0
10 11 0
10 12 0
11 12 0
-15 0
-13 -14 -16 -17 -18 0
13 14 0
13 16 0
13 17 0
13 18 0
14 16 0
14 17 0
14 18 0
16 17 0
16 18 0
17 18 0
-22 0
-19 -20 -21 -23 -24 0
19 20 0
19 21 0
19 23 0
19 24 0
20 21 0
20 23 0
20 24 0
21 23 0
21 24 0
23 24 0
-29 0
-25 -26 -27 -28 -30 0
25 26 0
25 27 0
25 28 0
25 30 0
26 27 0
26 28 0
26 30 0
27 28 0
27 30 0
28 30 0
-36 0
-31 -32 -33 -34 -35 0
31 32 0
31 33 0
31 34 0
31 35 0
32 33 0
32 34 0
32 35 0
33 34 0
33 35 0
34 35 0
-3 -9 -4 -10 -5 -11 0
-3 -9 -4 -10 -6 -12 0
-3 -9 -5 -11 -6 -12 0
-4 -10 -5 -11 -6 -12 0
-2 -14 -4 -16 -5 -17 0
-2 -14 -4 -16 -6 -18 0
-2 -14 -5 -17 -6 -18 0
-4 -16 -5 -17 -6 -18 0
-2 -20 -3 -21 -5 -23 0
-2 -20 -3 -21 -6 -24 0
-2 -20 -5 -23 -6 -24 0
-3 -21 -5 -23 -6 -24 0
-2 -26 -3 -27 -4 -28 0
-2 -26 -3 -27 -6 -30 0
-2 -26 -4 -28 -6 -30 0
-3 -27 -4 -28 -6 -30 0
-2 -32 -3 -33 -4 -34 0
-2 -32 -3 -33 -5 -35 0
-2 -32 -4 -34 -5 -35 0
-3 -33 -4 -34 -5 -35 0
-7 -13 -10 -16 -11 -17 0
-7 -13 -10 -16 -12 -18 0
-7 -13 -11 -17 -12 -18 0
-10 -16 -11 -17 -12 -18 0
-7 -19 -9 -21 -11 -23 0
-7 -19 -9 -21 -12 -24 0
-7 -19 -11 -23 -12 -24 0
-9 -21 -11 -23 -12 -24 0
-7 -25 -9 -27 -10 -28 0
-7 -25 -9 -27 -12 -30 0
-7 -25 -10 -28 -12 -30 0
-9 -27 -10 -28 -12 -30 0
-7 -31 -9 -33 -10 -34 0
-7 -31 -9 -33 -11 -35 0
-7 -31 -10 -34 -11 -35 0
-9 -33 -10 -34 -11 -35 0
-13 -19 -14 -20 -17 -23 0
-13 -19 -14 -20 -18 -24 0
-13 -19 -17 -23 -18 -24 0
-14 -20 -17 -23 -18 -24 0
-13 -25 -14 -26 -16 -28 0
-13 -25 -14 -26 -18 -30 0
-13 -25 -16 -28 -18 -30 0
-14 -26 -16 -28 -18 -30 0
-13 -31 -14 -32 -16 -34 0
-13 -31 -14 -32 -17 -35 0
-13 -31 -16 -34 -17 -35 0
-14 -32 -16 -34 -17 -35 0
-19 -25 -20 -26 -21 -27 0
-19 -25 -20 -26 -24 -30 0
-19 -25 -21 -27 -24 -30 0
-20 -26 -21 -27 -24 -30 0
-19 -31 -20 -32 -21 -33 0
-19 -31 -20 -32 -23 -35 0
-19 -31 -21 -33 -23 -35 0
-20 -32 -21 -33 -23 -35 0
-25 -31 -26 -32 -27 -33 0
-25 -31 -26 -32 -28 -34 0
-25 -31 -27 -33 -28 -34 0
-26 -32 -27 -33 -28 -34 0
-13 -14 -19 -20 -25 -26 0
-13 -14 -19 -20 -31 -32 0
-13 -14 -25 -26 -31 -32 0
-19 -20 -25 -26 -31 -32 0
-7 -9 -19 -21 -25 -27 0
-7 -9 -19 -21 -31 -33 0
-7 -9 -25 -27 -31 -33 0
-19 -21 -25 -27 -31 -33 0
-7 -10 -13 -16 -25 -28 0
-7 -10 -13 -16 -31 -34 0
-7 -10 -25 -28 -31 -34 0
-13 -16 -25 -28 -31 -34 0
-7 -11 -13 -17 -19 -23 0
-7 -11 -13 -17 -31 -35 0
-7 -11 -19 -23 -31 -35 0
-13 -17 -19 -23 -31 -35 0
-7 -12 -13 -18 -19 -24 0
-7 -12 -13 -18 -25 -30 0
-7 -12 -19 -24 -25 -30 0
-13 -18 -19 -24 -25 -30 0
-2 -3 -20 -21 -26 -27 0
-2 -3 -20 -21 -32 -33 0
-2 -3 -26 -27 -32 -33 0
-20 -21 -26 -27 -32 -33 0
-2 -4 -14 -16 -26 -28 0
-2 -4 -14 -16 -32 -34 0
-2 -4 -26 -28 -32 -34 0
-14 -16 -26 -28 -32 -34 0
-2 -5 -14 -17 -20 -23 0
-2 -5 -14 -17 -32 -35 0
-2 -5 -20 -23 -32 -35 0
-14 -17 -20 -23 -32 -35 0
-2 -6 -14 -18 -20 -24 0
-2 -6 -14 -18 -26 -30 0
-2 -6 -20 -24 -26 -30 0
-14 -18 -20 -24 -26 -30 0
-3 -4 -9 -10 -27 -28 0
-3 -4 -9 -10 -33 -34 0
-3 -4 -27 -28 -33 -34 0
-9 -10 -27 -28 -33 -34 0
-3 -5 -9 -11 -21 -23 0
-3 -5 -9 -11 -33 -35 0
-3 -5 -21 -23 -33 -35 0
-9 -11 -21 -23 -33 -35 0
-3 -6 -9 -12 -21 -24 0
-3 -6 -9 -12 -27 -30 0
-3 -6 -21 -24 -27 -30 0
-9 -12 -21 -24 -27 -30 0
-4 -5 -10 -11 -16 -17 0
-4 -5 -10 -11 -34 -35 0
-4 -5 -16 -17 -34 -35 0
-10 -11 -16 -17 -34 -35 0
-4 -6 -10 -12 -16 -18 0
-4 -6 -10 -12 -28 -30 0
-4 -6 -16 -18 -28 -30 0
-10 -12 -16 -18 -28 -30 0
-5 -6 -11 -12 -17 -18 0
-5 -6 -11 -12 -23 -24 0
-5 -6 -17 -18 -23 -24 0
-11 -12 -17 -18 -23 -24 0
-3 -4 -9 -10 0
-3 -5 -9 -11 0
-3 -6 -9 -12 0
-4 -5 -10 -11 0
-4 -6 -10 -12 0
-5 -6 -11 -12 0
-4 -5 -16 -17 0
-4 -6 -16 -18 0
-5 -6 -17 -18 0
-2 -3 -20 -21 0
-5 -6 -23 -24 0
-2 -3 -26 -27 0
-2 -4 -26 -28 0
-3 -4 -27 -28 0
-2 -3 -32 -33 0
-2 -4 -32 -34 0
-2 -5 -32 -35 0
-3 -4 -33 -34 0
-3 -5 -33 -35 0
-4 -5 -34 -35 0
-7 -10 -13 -16 0
-7 -11 -13 -17 0
-7 -12 -13 -18 0
-10 -11 -16 -17 0
-10 -12 -16 -18 0
-11 -12 -17 -18 0
-7 -11 -19 -23 0
-7 -12 -19 -24 0
-11 -12 -23 -24 0
-7 -12 -25 -30 0
-9 -10 -27 -28 0
-9 -10 -33 -34 0
-9 -11 -33 -35 0
-10 -11 -34 -35 0
-13 -14 -19 -20 0
-13 -17 -19 -23 0
-13 -18 -19 -24 0
-14 -17 -20 -23 0
-14 -18 -20 -24 0
-17 -18 -23 -24 0
-13 -14 -25 -26 0
-13 -18 -25 -30 0
-14 -18 -26 -30 0
-13 -14 -31 -32 0
-16 -17 -34 -35 0
-19 -20 -25 -26 0
-19 -21 -25 -27 0
-19 -24 -25 -30 0
-20 -21 -26 -27 0
-20 -24 -26 -30 0
-21 -24 -27 -30 0
-19 -20 -31 -32 0
-19 -21 -31 -33 0
-20 -21 -32 -33 0
-25 -26 -31 -32 0
-25 -27 -31 -33 0
-25 -28 -31 -34 0
-26 -27 -32 -33 0
-26 -28 -32 -34 0
-27 -28 -33 -34 0
2 3 4 5 6 0
7 9 10 11 12 0
13 14 16 17 18 0
19 20 21 23 24 0
25 26 27 28 30 0
31 32 33 34 35 0
3 4 5 6 9 10 11 12 0
2 4 5 6 14 16 17 18 0
2 3 5 6 20 21 23 24 0
2 3 4 6 26 27 28 30 0
2 3 4 5 32 33 34 35 0
7 10 11 12 13 16 17 18 0
7 9 11 12 19 21 23 24 0
7 9 10 12 25 27 28 30 0
7 9 10 11 31 33 34 35 0
13 14 17 18 19 20 23 24 0
13 14 16 18 25 26 28 30 0
13 14 16 17 31 32 34 35 0
19 20 21 24 25 26 27 30 0
19 20 21 23 31 32 33 35 0
25 26 27 28 31 32 33 34 0
4 5 6 10 11 12 16 17 18 0
3 5 6 9 11 12 21 23 24 0
3 4 6 9 10 12 27 28 30 0
3 4 5 9 10 11 33 34 35 0
2 5 6 14 17 18 20 23 24 0
2 4 6 14 16 18 26 28 30 0
2 4 5 14 16 17 32 34 35 0
2 3 6 20 21 24 26 27 30 0
2 3 5 20 21 23 32 33 35 0
2 3 4 26 27 28 32 33 34 0
7 11 12 13 17 18 19 23 24 0
7 10 12 13 16 18 25 28 30 0
7 10 11 13 16 17 31 34 35 0
7 9 12 19 21 24 25 27 30 0
7 9 11 19 21 23 31 33 35 0
7 9 10 25 27 28 31 33 34 0
13 14 18 19 20 24 25 26 30 0
13 14 17 19 20 23 31 32 35 0
13 14 16 25 26 28 31 32 34 0
19 20 21 25 26 27 31 32 33 0
5 6 11 12 17 18 23 24 0
4 6 10 12 16 18 28 30 0
4 5 10 11 16 17 34 35 0
3 6 9 12 21 24 27 30 0
3 5 9 11 21 23 33 35 0
3 4 9 10 27 28 33 34 0
2 6 14 18 20 24 26 30 0
2 5 14 17 20 23 32 35 0
2 4 14 16 26 28 32 34 0
2 3 20 21 26 27 32 33 0
7 12 13 18 19 24 25 30 0
7 11 13 17 19 23 31 35 0
7 10 13 16 25 28 31 34 0
7 9 19 21 25 27 31 33 0
13 14 19 20 25 26 31 32 0
6 12 18 24 30 0
5 11 17 23 35 0
4 10 16 28 34 0
3 9 21 27 33 0
2 14 20 26 32 0
7 13 19 25 31 0
39 40 41 42 0
-39 -40 0
-39 -41 0
-39 -42 0
-40 -41 0
-40 -42 0
-41 -42 0
-37 0
-38 0
-39 13 0
-40 19 0
-41 25 0
-42 31 0
45 46 47 48 0
-45 -46 0
-45 -47 0
-45 -48 0
-46 -47 0
-46 -48 0
-47 -48 0
-43 0
-44 0
-45 14 0
-46 20 0
-47 26 0
-48 32 0
52 53 54 0
-52 -53 0
-52 -54 0
-53 -54 0
-49 0
-50 0
-51 0
-52 21 0
-53 27 0
-54 33 0
57 59 60 0
-57 -59 0
-57 -60 0
-59 -60 0
-55 0
-56 0
-57 16 0
-58 0
-59 28 0
-60 34 0
63 64 66 0
-63 -64 0
-63 -66 0
-64 -66 0
-61 0
-62 0
-63 17 0
-64 23 0
-65 0
-66 35 0
69 70 71 0
-69 -70 0
-69 -71 0
-70 -71 0
-67 0
-68 0
-69 18 0
-70 24 0
-71 30 0
-72 0
-2 -3 -4 -7 -10 -13 -14 0
-9 -10 -13 -16 -19 -20 -21 0
-2 -3 -5 -7 -11 -13 -14 0
-9 -11 -13 -17 -25 -26 -27 0
-2 -3 -6 -7 -12 -13 -14 0
-9 -12 -13 -18 -31 -32 -33 0
-2 -4 -5 -7 -11 -19 -20 0
-10 -11 -19 -23 -25 -26 -28 0
-2 -4 -6 -7 -12 -19 -20 0
-10 -12 -19 -24 -31 -32 -34 0
-2 -5 -6 -7 -12 -25 -26 0
-11 -12 -25 -30 -31 -32 -35 0
-3 -4 -5 -13 -17 -19 -21 0
-16 -17 -19 -23 -25 -27 -28 0
-3 -4 -6 -13 -18 -19 -21 0
-16 -18 -19 -24 -31 -33 -34 0
-3 -5 -6 -13 -18 -25 -27 0
-17 -18 -25 -30 -31 -33 -35 0
-4 -5 -6 -19 -24 -25 -28 0
-23 -24 -25 -30 -31 -34 -35 0
-9 -10 -11 -14 -17 -20 -21 0
-16 -17 -20 -23 -26 -27 -28 0
-9 -10 -12 -14 -18 -20 -21 0
-16 -18 -20 -24 -32 -33 -34 0
-9 -11 -12 -14 -18 -26 -27 0
-17 -18 -26 -30 -32 -33 -35 0
-10 -11 -12 -20 -24 -26 -28 0
-23 -24 -26 -30 -32 -34 -35 0
-16 -17 -18 -21 -24 -27 -28 0
-23 -24 -27 -30 -33 -34 -35 0
-2 -3 -7 -9 -19 -20 0
-3 -4 -14 -16 -20 -21 0
-2 -3 -7 -9 -25 -26 0
-3 -5 -14 -17 -26 -27 0
-2 -3 -7 -9 -31 -32 0
-3 -6 -14 -18 -32 -33 0
-2 -4 -7 -10 -25 -26 0
-4 -5 -20 -23 -26 -28 0
-2 -4 -7 -10 -31 -32 0
-4 -6 -20 -24 -32 -34 0
-2 -5 -7 -11 -31 -32 0
-5 -6 -26 -30 -32 -35 0
-3 -4 -13 -16 -25 -27 0
-4 -5 -21 -23 -27 -28 0
-3 -4 -13 -16 -31 -33 0
-4 -6 -21 -24 -33 -34 0
-3 -5 -13 -17 -31 -33 0
-5 -6 -27 -30 -33 -35 0
-4 -5 -19 -23 -31 -34 0
-5 -6 -28 -30 -34 -35 0
-9 -10 -14 -16 -26 -27 0
-10 -11 -21 -23 -27 -28 0
-9 -10 -14 -16 -32 -33 0
-10 -12 -21 -24 -33 -34 0
-9 -11 -14 -17 -32 -33 0
-11 -12 -27 -30 -33 -35 0
-10 -11 -20 -23 -32 -34 0
-11 -12 -28 -30 -34 -35 0
-16 -17 -21 -23 -33 -34 0
-17 -18 -28 -30 -34 -35 0
-2 -3 -9 -10 -14 -16 0
-7 -9 -13 -14 -20 -21 0
-2 -3 -9 -11 -14 -17 0
-7 -9 -13 -14 -26 -27 0
-2 -3 -9 -12 -14 -18 0
-7 -9 -13 -14 -32 -33 0
-2 -4 -10 -11 -20 -23 0
-7 -10 -19 -20 -26 -28 0
-2 -4 -10 -12 -20 -24 0
-7 -10 -19 -20 -32 -34 0
-2 -5 -11 -12 -26 -30 0
-7 -11 -25 -26 -32 -35 0
-3 -4 -16 -17 -21 -23 0
-13 -16 -19 -21 -27 -28 0
-3 -4 -16 -18 -21 -24 0
-13 -16 -19 -21 -33 -34 0
-3 -5 -17 -18 -27 -30 0
-13 -17 -25 -27 -33 -35 0
-4 -5 -23 -24 -28 -30 0
-19 -23 -25 -28 -34 -35 0
-9 -10 -16 -17 -21 -23 0
-14 -16 -20 -21 -27 -28 0
-9 -10 -16 -18 -21 -24 0
-14 -16 -20 -21 -33 -34 0
-9 -11 -17 -18 -27 -30 0
-14 -17 -26 -27 -33 -35 0
-10 -11 -23 -24 -28 -30 0
-20 -23 -26 -28 -34 -35 0
-16 -17 -23 -24 -28 -30 0
-21 -23 -27 -28 -34 -35 0
-2 -4 -7 -10 -13 -14 0
-9 -10 -13 -16 -19 -21 0
-2 -5 -7 -11 -13 -14 0
-9 -11 -13 -17 -25 -27 0
-2 -6 -7 -12 -13 -14 0
-9 -12 -13 -18 -31 -33 0
-2 -5 -7 -11 -19 -20 0
-10 -11 -19 -23 -25 -28 0
-2 -6 -7 -12 -19 -20 0
-10 -12 -19 -24 -31 -34 0
-2 -6 -7 -12 -25 -26 0
-11 -12 -25 -30 -31 -35 0
-3 -5 -13 -17 -19 -21 0
-16 -17 -19 -23 -25 -28 0
-3 -6 -13 -18 -19 -21 0
-16 -18 -19 -24 -31 -34 0
-3 -6 -13 -18 -25 -27 0
-17 -18 -25 -30 -31 -35 0
-4 -6 -19 -24 -25 -28 0
-23 -24 -25 -30 -31 -35 0
-9 -11 -14 -17 -20 -21 0
-16 -17 -20 -23 -26 -28 0
-9 -12 -14 -18 -20 -21 0
-16 -18 -20 -24 -32 -34 0
-9 -12 -14 -18 -26 -27 0
-17 -18 -26 -30 -32 -35 0
-10 -12 -20 -24 -26 -28 0
-23 -24 -26 -30 -32 -35 0
-16 -18 -21 -24 -27 -28 0
-23 -24 -27 -30 -33 -35 0
-2 -4 -13 -16 -19 -20 0
-3 -4 -7 -10 -19 -21 0
-2 -5 -13 -17 -25 -26 0
-3 -5 -7 -11 -25 -27 0
-2 -6 -13 -18 -31 -32 0
-3 -6 -7 -12 -31 -33 0
-2 -5 -19 -23 -25 -26 0
-4 -5 -7 -11 -25 -28 0
-2 -6 -19 -24 -31 -32 0
-4 -6 -7 -12 -31 -34 0
-2 -6 -25 -30 -31 -32 0
-5 -6 -7 -12 -31 -35 0
-3 -5 -19 -23 -25 -27 0
-4 -5 -13 -17 -25 -28 0
-3 -6 -19 -24 -31 -33 0
-4 -6 -13 -18 -31 -34 0
-3 -6 -25 -30 -31 -33 0
-5 -6 -13 -18 -31 -35 0
-4 -6 -25 -30 -31 -34 0
-5 -6 -19 -24 -31 -35 0
-9 -11 -20 -23 -26 -27 0
-10 -11 -14 -17 -26 -28 0
-9 -12 -20 -24 -32 -33 0
-10 -12 -14 -18 -32 -34 0
-9 -12 -26 -30 -32 -33 0
-11 -12 -14 -18 -32 -35 0
-10 -12 -26 -30 -32 -34 0
-11 -12 -20 -24 -32 -35 0
-16 -18 -27 -30 -33 -34 0
-17 -18 -21 -24 -33 -35 0
-2 -4 -7 -9 -14 -17 -21 -23 -25 -27 -28 0
-2 -3 -5 -7 -9 -13 -16 -21 -23 -26 -28 0
-2 -4 -7 -9 -14 -18 -21 -24 -31 -33 -34 0
-2 -3 -6 -7 -9 -13 -16 -21 -24 -32 -34 0
-2 -5 -7 -9 -14 -18 -27 -30 -31 -33 -35 0
-2 -3 -6 -7 -9 -13 -17 -27 -30 -32 -35 0
-2 -5 -7 -10 -20 -24 -28 -30 -31 -34 -35 0
-2 -4 -6 -7 -10 -19 -23 -28 -30 -32 -35 0
-3 -5 -13 -16 -21 -24 -28 -30 -31 -34 -35 0
-3 -4 -6 -13 -16 -19 -23 -28 -30 -33 -35 0
-9 -11 -14 -16 -21 -24 -28 -30 -32 -34 -35 0
-9 -10 -12 -14 -16 -20 -23 -28 -30 -33 -35 0
-7 -10 -13 -17 -21 -23 -27 -28 0
-2 -3 -7 -9 -13 -17 -20 -23 0
-7 -10 -13 -18 -21 -24 -33 -34 0
-2 -3 -7 -9 -13 -18 -20 -24 0
-7 -11 -13 -18 -27 -30 -33 -35 0
-2 -3 -7 -9 -13 -18 -26 -30 0
-7 -11 -19 -24 -28 -30 -34 -35 0
-2 -4 -7 -10 -19 -24 -26 -30 0
-13 -17 -19 -24 -28 -30 -34 -35 0
-3 -4 -13 -16 -19 -24 -27 -30 0
-14 -17 -20 -24 -28 -30 -34 -35 0
-9 -10 -14 -16 -20 -24 -27 -30 0
-2 -3 -7 -9 -14 -17 -19 -23 0
-7 -11 -13 -16 -21 -23 -27 -28 0
-2 -3 -7 -9 -14 -18 -19 -24 0
-7 -12 -13 -16 -21 -24 -33 -34 0
-2 -3 -7 -9 -14 -18 -25 -30 0
-7 -12 -13 -17 -27 -30 -33 -35 0
-2 -4 -7 -10 -20 -24 -25 -30 0
-7 -12 -19 -23 -28 -30 -34 -35 0
-3 -4 -13 -16 -21 -24 -25 -30 0
-13 -18 -19 -23 -28 -30 -34 -35 0
-9 -10 -14 -16 -21 -24 -26 -30 0
-14 -18 -20 -23 -28 -30 -34 -35 0
-2 -3 -16 -17 -20 -23 -27 -28 0
-2 -3 -7 -10 -13 -14 -27 -28 0
-2 -3 -16 -18 -20 -24 -33 -34 0
-2 -3 -7 -10 -13 -14 -33 -34 0
-2 -3 -17 -18 -26 -30 -33 -35 0
-2 -3 -7 -11 -13 -14 -33 -35 0
-2 -4 -23 -24 -26 -30 -34 -35 0
-2 -4 -7 -11 -19 -20 -34 -35 0
-3 -4 -23 -24 -27 -30 -34 -35 0
-3 -4 -13 -17 -19 -21 -34 -35 0
-9 -10 -23 -24 -27 -30 -34 -35 0
-9 -10 -14 -17 -20 -21 -34 -35 0
-2 -3 -10 -11 -20 -23 -27 -28 0
-2 -3 -7 -10 -19 -20 -27 -28 0
-2 -3 -10 -12 -20 -24 -33 -34 0
-2 -3 -7 -10 -19 -20 -33 -34 0
-2 -3 -11 -12 -26 -30 -33 -35 0
-2 -3 -7 -11 -25 -26 -33 -35 0
-2 -4 -11 -12 -26 -30 -34 -35 0
-2 -4 -7 -11 -25 -26 -34 -35 0
-3 -4 -17 -18 -27 -30 -34 -35 0
-3 -4 -13 -17 -25 -27 -34 -35 0
-9 -10 -17 -18 -27 -30 -34 -35 0
-9 -10 -14 -17 -26 -27 -34 -35 0
-2 -3 -7 -11 -13 -16 -20 -23 -26 -28 0
-2 -4 -7 -10 -14 -17 -19 -23 -27 -28 0
-2 -3 -7 -12 -13 -16 -20 -24 -32 -34 0
-2 -4 -7 -10 -14 -18 -19 -24 -33 -34 0
-2 -3 -7 -12 -13 -17 -26 -30 -32 -35 0
-2 -5 -7 -11 -14 -18 -25 -30 -33 -35 0
-2 -4 -7 -12 -19 -23 -26 -30 -32 -35 0
-2 -5 -7 -11 -20 -24 -25 -30 -34 -35 0
-3 -4 -13 -18 -19 -23 -27 -30 -33 -35 0
-3 -5 -13 -17 -21 -24 -25 -30 -34 -35 0
-9 -10 -14 -18 -20 -23 -27 -30 -33 -35 0
-9 -11 -14 -17 -21 -24 -26 -30 -34 -35 0
-2 -3 -9 -10 -26 -28 0
-2 -4 -20 -21 -27 -28 0
-2 -3 -9 -10 -32 -34 0
-2 -4 -20 -21 -33 -34 0
-2 -3 -9 -11 -32 -35 0
-2 -5 -26 -27 -33 -35 0
-2 -4 -10 -11 -32 -35 0
-2 -5 -26 -28 -34 -35 0
-3 -4 -16 -17 -33 -35 0
-3 -5 -27 -28 -34 -35 0
-9 -10 -16 -17 -33 -35 0
-9 -11 -27 -28 -34 -35 0
-2 -3 -9 -11 -13 -14 -19 -23 0
-7 -11 -16 -17 -19 -21 -27 -28 0
-2 -3 -9 -12 -13 -14 -19 -24 0
-7 -12 -16 -18 -19 -21 -33 -34 0
-2 -3 -9 -12 -13 -14 -25 -30 0
-7 -12 -17 -18 -25 -27 -33 -35 0
-2 -4 -10 -12 -19 -20 -25 -30 0
-7 -12 -23 -24 -25 -28 -34 -35 0
-3 -4 -16 -18 -19 -21 -25 -30 0
-13 -18 -23 -24 -25 -28 -34 -35 0
-9 -10 -16 -18 -20 -21 -26 -30 0
-14 -18 -23 -24 -26 -28 -34 -35 0
-2 -3 -9 -11 -20 -23 0
-7 -10 -19 -21 -27 -28 0
-2 -3 -9 -12 -20 -24 0
-7 -10 -19 -21 -33 -34 0
-2 -3 -9 -12 -26 -30 0
-7 -11 -25 -27 -33 -35 0
-2 -4 -10 -12 -26 -30 0
-7 -11 -25 -28 -34 -35 0
-3 -4 -16 -18 -27 -30 0
-13 -17 -25 -28 -34 -35 0
-9 -10 -16 -18 -27 -30 0
-14 -17 -26 -28 -34 -35 0
-2 -3 -10 -11 -21 -23 -26 -28 0
-2 -4 -7 -9 -19 -20 -27 -28 0
-2 -3 -10 -12 -21 -24 -32 -34 0
-2 -4 -7 -9 -19 -20 -33 -34 0
-2 -3 -11 -12 -27 -30 -32 -35 0
-2 -5 -7 -9 -25 -26 -33 -35 0
-2 -4 -11 -12 -28 -30 -32 -35 0
-2 -5 -7 -10 -25 -26 -34 -35 0
-3 -4 -17 -18 -28 -30 -33 -35 0
-3 -5 -13 -16 -25 -27 -34 -35 0
-9 -10 -17 -18 -28 -30 -33 -35 0
-9 -11 -14 -16 -26 -27 -34 -35 0
-2 -4 -9 -11 -14 -17 -27 -28 0
-2 -3 -13 -16 -19 -21 -26 -28 0
-2 -4 -9 -12 -14 -18 -33 -34 0
-2 -3 -13 -16 -19 -21 -32 -34 0
-2 -5 -9 -12 -14 -18 -33 -35 0
-2 -3 -13 -17 -25 -27 -32 -35 0
-2 -5 -10 -12 -20 -24 -34 -35 0
-2 -4 -19 -23 -25 -28 -32 -35 0
-3 -5 -16 -18 -21 -24 -34 -35 0
-3 -4 -19 -23 -25 -28 -33 -35 0
-9 -11 -16 -18 -21 -24 -34 -35 0
-9 -10 -20 -23 -26 -28 -33 -35 0
-2 -4 -7 -9 -13 -14 -27 -28 0
-2 -3 -16 -17 -21 -23 -26 -28 0
-2 -4 -7 -9 -13 -14 -33 -34 0
-2 -3 -16 -18 -21 -24 -32 -34 0
-2 -5 -7 -9 -13 -14 -33 -35 0
-2 -3 -17 -18 -27 -30 -32 -35 0
-2 -5 -7 -10 -19 -20 -34 -35 0
-2 -4 -23 -24 -28 -30 -32 -35 0
-3 -5 -13 -16 -19 -21 -34 -35 0
-3 -4 -23 -24 -28 -30 -33 -35 0
-9 -11 -14 -16 -20 -21 -34 -35 0
-9 -10 -23 -24 -28 -30 -33 -35 0
-2 -4 -5 -27 -28 0
-2 -3 -25 -26 -28 0
-2 -4 -6 -33 -34 0
-2 -3 -31 -32 -34 0
-2 -5 -6 -33 -35 0
-2 -3 -31 -32 -35 0
-2 -5 -6 -34 -35 0
-2 -4 -31 -32 -35 0
-3 -5 -6 -34 -35 0
-3 -4 -31 -33 -35 0
-9 -11 -12 -34 -35 0
-9 -10 -32 -33 -35 0
-2 -4 -7 -9 -14 -16 -25 -27 0
-3 -5 -14 -16 -21 -23 -26 -28 0
-2 -4 -7 -9 -14 -16 -31 -33 0
-3 -6 -14 -16 -21 -24 -32 -34 0
-2 -5 -7 -9 -14 -17 -31 -33 0
-3 -6 -14 -17 -27 -30 -32 -35 0
-2 -5 -7 -10 -20 -23 -31 -34 0
-4 -6 -20 -23 -28 -30 -32 -35 0
-3 -5 -13 -16 -21 -23 -31 -34 0
-4 -6 -21 -23 -28 -30 -33 -35 0
-9 -11 -14 -16 -21 -23 -32 -34 0
-10 -12 -21 -23 -28 -30 -33 -35 0
-7 -10 -13 -17 -20 -23 -26 -28 0
-2 -4 -7 -10 -13 -17 -20 -23 0
-7 -10 -13 -18 -20 -24 -32 -34 0
-2 -4 -7 -10 -13 -18 -20 -24 0
-7 -11 -13 -18 -26 -30 -32 -35 0
-2 -5 -7 -11 -13 -18 -26 -30 0
-7 -11 -19 -24 -26 -30 -32 -35 0
-2 -5 -7 -11 -19 -24 -26 -30 0
-13 -17 -19 -24 -27 -30 -33 -35 0
-3 -5 -13 -17 -19 -24 -27 -30 0
-14 -17 -20 -24 -27 -30 -33 -35 0
-9 -11 -14 -17 -20 -24 -27 -30 0
-7 -9 -11 -13 -14 -16 -20 -23 -26 -28 0
-2 -4 -7 -10 -14 -16 -17 -19 -21 -23 0
-7 -9 -12 -13 -14 -16 -20 -24 -32 -34 0
-2 -4 -7 -10 -14 -16 -18 -19 -21 -24 0
-7 -9 -12 -13 -14 -17 -26 -30 -32 -35 0
-2 -5 -7 -11 -14 -17 -18 -25 -27 -30 0
-7 -10 -12 -19 -20 -23 -26 -30 -32 -35 0
-2 -5 -7 -11 -20 -23 -24 -25 -28 -30 0
-13 -16 -18 -19 -21 -23 -27 -30 -33 -35 0
-3 -5 -13 -17 -21 -23 -24 -25 -28 -30 0
-14 -16 -18 -20 -21 -23 -27 -30 -33 -35 0
-9 -11 -14 -17 -21 -23 -24 -26 -28 -30 0
-2 -4 -7 -10 -14 -17 -19 -23 0
-7 -11 -13 -16 -20 -23 -26 -28 0
-2 -4 -7 -10 -14 -18 -19 -24 0
-7 -12 -13 -16 -20 -24 -32 -34 0
-2 -5 -7 -11 -14 -18 -25 -30 0
-7 -12 -13 -17 -26 -30 -32 -35 0
-2 -5 -7 -11 -20 -24 -25 -30 0
-7 -12 -19 -23 -26 -30 -32 -35 0
-3 -5 -13 -17 -21 -24 -25 -30 0
-13 -18 -19 -23 -27 -30 -33 -35 0
-9 -11 -14 -17 -21 -24 -26 -30 0
-14 -18 -20 -23 -27 -30 -33 -35 0
-2 -4 -7 -10 -19 -21 -26 -27 0
-3 -4 -9 -11 -20 -23 -26 -28 0
-2 -4 -7 -10 -19 -21 -32 -33 0
-3 -4 -9 -12 -20 -24 -32 -34 0
-2 -5 -7 -11 -25 -27 -32 -33 0
-3 -5 -9 -12 -26 -30 -32 -35 0
-2 -5 -7 -11 -25 -28 -32 -34 0
-4 -5 -10 -12 -26 -30 -32 -35 0
-3 -5 -13 -17 -25 -28 -33 -34 0
-4 -5 -16 -18 -27 -30 -33 -35 0
-9 -11 -14 -17 -26 -28 -33 -34 0
-10 -11 -16 -18 -27 -30 -33 -35 0
-3 -5 -9 -10 -20 -23 -26 -28 0
-2 -4 -7 -10 -20 -21 -25 -27 0
-3 -6 -9 -10 -20 -24 -32 -34 0
-2 -4 -7 -10 -20 -21 -31 -33 0
-3 -6 -9 -11 -26 -30 -32 -35 0
-2 -5 -7 -11 -26 -27 -31 -33 0
-4 -6 -10 -11 -26 -30 -32 -35 0
-2 -5 -7 -11 -26 -28 -31 -34 0
-4 -6 -16 -17 -27 -30 -33 -35 0
-3 -5 -13 -17 -27 -28 -31 -34 0
-10 -12 -16 -17 -27 -30 -33 -35 0
-9 -11 -14 -17 -27 -28 -32 -34 0
-4 -5 -13 -14 -19 -23 -26 -28 0
-2 -4 -7 -11 -16 -17 -25 -26 0
-4 -6 -13 -14 -19 -24 -32 -34 0
-2 -4 -7 -12 -16 -18 -31 -32 0
-5 -6 -13 -14 -25 -30 -32 -35 0
-2 -5 -7 -12 -17 -18 -31 -32 0
-5 -6 -19 -20 -25 -30 -32 -35 0
-2 -5 -7 -12 -23 -24 -31 -32 0
-5 -6 -19 -21 -25 -30 -33 -35 0
-3 -5 -13 -18 -23 -24 -31 -33 0
-11 -12 -20 -21 -26 -30 -33 -35 0
-9 -11 -14 -18 -23 -24 -32 -33 0
-2 -4 -9 -11 -14 -16 -21 -23 0
-7 -9 -14 -16 -19 -21 -26 -28 0
-2 -4 -9 -12 -14 -16 -21 -24 0
-7 -9 -14 -16 -19 -21 -32 -34 0
-2 -5 -9 -12 -14 -17 -27 -30 0
-7 -9 -14 -17 -25 -27 -32 -35 0
-2 -5 -10 -12 -20 -23 -28 -30 0
-7 -10 -20 -23 -25 -28 -32 -35 0
-3 -5 -16 -18 -21 -23 -28 -30 0
-13 -16 -21 -23 -25 -28 -33 -35 0
-9 -11 -16 -18 -21 -23 -28 -30 0
-14 -16 -21 -23 -26 -28 -33 -35 0
-3 -4 -9 -11 -14 -17 -26 -28 0
-2 -4 -13 -16 -19 -21 -26 -27 0
-3 -4 -9 -12 -14 -18 -32 -34 0
-2 -4 -13 -16 -19 -21 -32 -33 0
-3 -5 -9 -12 -14 -18 -32 -35 0
-2 -5 -13 -17 -25 -27 -32 -33 0
-4 -5 -10 -12 -20 -24 -32 -35 0
-2 -5 -19 -23 -25 -28 -32 -34 0
-4 -5 -16 -18 -21 -24 -33 -35 0
-3 -5 -19 -23 -25 -28 -33 -34 0
-10 -11 -16 -18 -21 -24 -33 -35 0
-9 -11 -20 -23 -26 -28 -33 -34 0
-4 -5 -14 -17 -26 -28 0
-2 -4 -13 -16 -25 -26 0
-4 -6 -14 -18 -32 -34 0
-2 -4 -13 -16 -31 -32 0
-5 -6 -14 -18 -32 -35 0
-2 -5 -13 -17 -31 -32 0
-5 -6 -20 -24 -32 -35 0
-2 -5 -19 -23 -31 -32 0
-5 -6 -21 -24 -33 -35 0
-3 -5 -19 -23 -31 -33 0
-11 -12 -21 -24 -33 -35 0
-9 -11 -20 -23 -32 -33 0
-7 -10 -13 -14 -26 -28 0
-2 -4 -16 -17 -20 -23 0
-7 -10 -13 -14 -32 -34 0
-2 -4 -16 -18 -20 -24 0
-7 -11 -13 -14 -32 -35 0
-2 -5 -17 -18 -26 -30 0
-7 -11 -19 -20 -32 -35 0
-2 -5 -23 -24 -26 -30 0
-13 -17 -19 -21 -33 -35 0
-3 -5 -23 -24 -27 -30 0
-14 -17 -20 -21 -33 -35 0
-9 -11 -23 -24 -27 -30 0
-3 -4 -7 -9 -13 -14 -26 -28 0
-2 -4 -16 -17 -21 -23 -26 -27 0
-3 -4 -7 -9 -13 -14 -32 -34 0
-2 -4 -16 -18 -21 -24 -32 -33 0
-3 -5 -7 -9 -13 -14 -32 -35 0
-2 -5 -17 -18 -27 -30 -32 -33 0
-4 -5 -7 -10 -19 -20 -32 -35 0
-2 -5 -23 -24 -28 -30 -32 -34 0
-4 -5 -13 -16 -19 -21 -33 -35 0
-3 -5 -23 -24 -28 -30 -33 -34 0
-10 -11 -14 -16 -20 -21 -33 -35 0
-9 -11 -23 -24 -28 -30 -33 -34 0
-2 -5 -7 -9 -10 -14 -17 -25 -28 0
-2 -5 -13 -16 -20 -21 -23 -25 -28 0
-2 -6 -7 -9 -10 -14 -18 -31 -34 0
-2 -6 -13 -16 -20 -21 -24 -31 -34 0
-2 -6 -7 -9 -11 -14 -18 -31 -35 0
-2 -6 -13 -17 -26 -27 -30 -31 -35 0
-2 -6 -7 -10 -11 -20 -24 -31 -35 0
-2 -6 -19 -23 -26 -28 -30 -31 -35 0
-3 -6 -13 -16 -17 -21 -24 -31 -35 0
-3 -6 -19 -23 -27 -28 -30 -31 -35 0
-9 -12 -14 -16 -17 -21 -24 -32 -35 0
-9 -12 -20 -23 -27 -28 -30 -32 -35 0
-3 -5 -7 -10 -20 -21 -23 -25 -28 0
-2 -5 -7 -9 -10 -20 -23 -25 -27 0
-3 -6 -7 -10 -20 -21 -24 -31 -34 0
-2 -6 -7 -9 -10 -20 -24 -31 -33 0
-3 -6 -7 -11 -26 -27 -30 -31 -35 0
-2 -6 -7 -9 -11 -26 -30 -31 -33 0
-4 -6 -7 -11 -26 -28 -30 -31 -35 0
-2 -6 -7 -10 -11 -26 -30 -31 -34 0
-4 -6 -13 -17 -27 -28 -30 -31 -35 0
-3 -6 -13 -16 -17 -27 -30 -31 -34 0
-10 -12 -14 -17 -27 -28 -30 -32 -35 0
-9 -12 -14 -16 -17 -27 -30 -32 -34 0
-2 -5 -7 -9 -14 -17 -19 -21 0
-9 -11 -13 -16 -21 -23 -25 -28 0
-2 -6 -7 -9 -14 -18 -19 -21 0
-9 -12 -13 -16 -21 -24 -31 -34 0
-2 -6 -7 -9 -14 -18 -25 -27 0
-9 -12 -13 -17 -27 -30 -31 -35 0
-2 -6 -7 -10 -20 -24 -25 -28 0
-10 -12 -19 -23 -28 -30 -31 -35 0
-3 -6 -13 -16 -21 -24 -25 -28 0
-16 -18 -19 -23 -28 -30 -31 -35 0
-9 -12 -14 -16 -21 -24 -26 -28 0
-16 -18 -20 -23 -28 -30 -32 -35 0
-3 -5 -7 -10 -21 -23 -25 -28 0
-2 -5 -7 -9 -20 -23 -25 -27 0
-3 -6 -7 -10 -21 -24 -31 -34 0
-2 -6 -7 -9 -20 -24 -31 -33 0
-3 -6 -7 -11 -27 -30 -31 -35 0
-2 -6 -7 -9 -26 -30 -31 -33 0
-4 -6 -7 -11 -28 -30 -31 -35 0
-2 -6 -7 -10 -26 -30 -31 -34 0
-4 -6 -13 -17 -28 -30 -31 -35 0
-3 -6 -13 -16 -27 -30 -31 -34 0
-10 -12 -14 -17 -28 -30 -32 -35 0
-9 -12 -14 -16 -27 -30 -32 -34 0
-2 -5 -13 -16 -20 -23 -25 -28 0
-2 -5 -7 -10 -14 -17 -25 -28 0
-2 -6 -13 -16 -20 -24 -31 -34 0
-2 -6 -7 -10 -14 -18 -31 -34 0
-2 -6 -13 -17 -26 -30 -31 -35 0
-2 -6 -7 -11 -14 -18 -31 -35 0
-2 -6 -19 -23 -26 -30 -31 -35 0
-2 -6 -7 -11 -20 -24 -31 -35 0
-3 -6 -19 -23 -27 -30 -31 -35 0
-3 -6 -13 -17 -21 -24 -31 -35 0
-9 -12 -20 -23 -27 -30 -32 -35 0
-9 -12 -14 -17 -21 -24 -32 -35 0
-10 -11 -13 -14 -20 -23 -25 -28 0
-2 -5 -7 -10 -16 -17 -19 -20 0
-10 -12 -13 -14 -20 -24 -31 -34 0
-2 -6 -7 -10 -16 -18 -19 -20 0
-11 -12 -13 -14 -26 -30 -31 -35 0
-2 -6 -7 -11 -17 -18 -25 -26 0
-11 -12 -19 -20 -26 -30 -31 -35 0
-2 -6 -7 -11 -23 -24 -25 -26 0
-17 -18 -19 -21 -27 -30 -31 -35 0
-3 -6 -13 -17 -23 -24 -25 -27 0
-17 -18 -20 -21 -27 -30 -32 -35 0
-9 -12 -14 -17 -23 -24 -26 -27 0
-2 -5 -7 -10 -16 -17 -25 -26 0
-4 -5 -13 -14 -20 -23 -25 -28 0
-2 -6 -7 -10 -16 -18 -31 -32 0
-4 -6 -13 -14 -20 -24 -31 -34 0
-2 -6 -7 -11 -17 -18 -31 -32 0
-5 -6 -13 -14 -26 -30 -31 -35 0
-2 -6 -7 -11 -23 -24 -31 -32 0
-5 -6 -19 -20 -26 -30 -31 -35 0
-3 -6 -13 -17 -23 -24 -31 -33 0
-5 -6 -19 -21 -27 -30 -31 -35 0
-9 -12 -14 -17 -23 -24 -32 -33 0
-11 -12 -20 -21 -27 -30 -32 -35 0
-2 -5 -7 -11 -19 -21 -26 -27 0
-3 -4 -9 -11 -19 -23 -25 -28 0
-2 -6 -7 -12 -19 -21 -32 -33 0
-3 -4 -9 -12 -19 -24 -31 -34 0
-2 -6 -7 -12 -25 -27 -32 -33 0
-3 -5 -9 -12 -25 -30 -31 -35 0
-2 -6 -7 -12 -25 -28 -32 -34 0
-4 -5 -10 -12 -25 -30 -31 -35 0
-3 -6 -13 -18 -25 -28 -33 -34 0
-4 -5 -16 -18 -25 -30 -31 -35 0
-9 -12 -14 -18 -26 -28 -33 -34 0
-10 -11 -16 -18 -26 -30 -32 -35 0
-2 -5 -13 -17 -20 -21 -25 -27 0
-3 -5 -9 -10 -13 -17 -25 -28 0
-2 -6 -13 -18 -20 -21 -31 -33 0
-3 -6 -9 -10 -13 -18 -31 -34 0
-2 -6 -13 -18 -26 -27 -31 -33 0
-3 -6 -9 -11 -13 -18 -31 -35 0
-2 -6 -19 -24 -26 -28 -31 -34 0
-4 -6 -10 -11 -19 -24 -31 -35 0
-3 -6 -19 -24 -27 -28 -31 -34 0
-4 -6 -16 -17 -19 -24 -31 -35 0
-9 -12 -20 -24 -27 -28 -32 -34 0
-10 -12 -16 -17 -20 -24 -32 -35 0
-3 -4 -10 -11 -20 -23 -26 -27 0
-3 -4 -7 -10 -19 -20 -26 -27 0
-3 -4 -10 -12 -20 -24 -32 -33 0
-3 -4 -7 -10 -19 -20 -32 -33 0
-3 -5 -11 -12 -26 -30 -32 -33 0
-3 -5 -7 -11 -25 -26 -32 -33 0
-4 -5 -11 -12 -26 -30 -32 -34 0
-4 -5 -7 -11 -25 -26 -32 -34 0
-4 -5 -17 -18 -27 -30 -33 -34 0
-4 -5 -13 -17 -25 -27 -33 -34 0
-10 -11 -17 -18 -27 -30 -33 -34 0
-10 -11 -14 -17 -26 -27 -33 -34 0
-7 -9 -14 -17 -19 -23 -26 -27 0
-3 -4 -7 -11 -13 -16 -21 -23 0
-7 -9 -14 -18 -19 -24 -32 -33 0
-3 -4 -7 -12 -13 -16 -21 -24 0
-7 -9 -14 -18 -25 -30 -32 -33 0
-3 -5 -7 -12 -13 -17 -27 -30 0
-7 -10 -20 -24 -25 -30 -32 -34 0
-4 -5 -7 -12 -19 -23 -28 -30 0
-13 -16 -21 -24 -25 -30 -33 -34 0
-4 -5 -13 -18 -19 -23 -28 -30 0
-14 -16 -21 -24 -26 -30 -33 -34 0
-10 -11 -14 -18 -20 -23 -28 -30 0
-3 -4 -10 -11 -14 -17 -26 -27 0
-3 -4 -13 -16 -19 -20 -26 -27 0
-3 -4 -10 -12 -14 -18 -32 -33 0
-3 -4 -13 -16 -19 -20 -32 -33 0
-3 -5 -11 -12 -14 -18 -32 -33 0
-3 -5 -13 -17 -25 -26 -32 -33 0
-4 -5 -11 -12 -20 -24 -32 -34 0
-4 -5 -19 -23 -25 -26 -32 -34 0
-4 -5 -17 -18 -21 -24 -33 -34 0
-4 -5 -19 -23 -25 -27 -33 -34 0
-10 -11 -17 -18 -21 -24 -33 -34 0
-10 -11 -20 -23 -26 -27 -33 -34 0
-4 -5 -9 -10 -14 -17 -26 -27 0
-3 -4 -13 -16 -20 -21 -25 -26 0
-4 -6 -9 -10 -14 -18 -32 -33 0
-3 -4 -13 -16 -20 -21 -31 -32 0
-5 -6 -9 -11 -14 -18 -32 -33 0
-3 -5 -13 -17 -26 -27 -31 -32 0
-5 -6 -10 -11 -20 -24 -32 -34 0
-4 -5 -19 -23 -26 -28 -31 -32 0
-5 -6 -16 -17 -21 -24 -33 -34 0
-4 -5 -19 -23 -27 -28 -31 -33 0
-11 -12 -16 -17 -21 -24 -33 -34 0
-10 -11 -20 -23 -27 -28 -32 -33 0
-4 -5 -9 -11 -14 -16 -26 -27 0
-3 -4 -14 -16 -19 -21 -25 -26 0
-4 -6 -9 -12 -14 -16 -32 -33 0
-3 -4 -14 -16 -19 -21 -31 -32 0
-5 -6 -9 -12 -14 -17 -32 -33 0
-3 -5 -14 -17 -25 -27 -31 -32 0
-5 -6 -10 -12 -20 -23 -32 -34 0
-4 -5 -20 -23 -25 -28 -31 -32 0
-5 -6 -16 -18 -21 -23 -33 -34 0
-4 -5 -21 -23 -25 -28 -31 -33 0
-11 -12 -16 -18 -21 -23 -33 -34 0
-10 -11 -21 -23 -26 -28 -32 -33 0
-3 -5 -7 -10 -16 -17 -25 -27 0
-3 -5 -13 -14 -20 -23 -25 -27 0
-3 -6 -7 -10 -16 -18 -31 -33 0
-3 -6 -13 -14 -20 -24 -31 -33 0
-3 -6 -7 -11 -17 -18 -31 -33 0
-3 -6 -13 -14 -26 -30 -31 -33 0
-4 -6 -7 -11 -23 -24 -31 -34 0
-4 -6 -19 -20 -26 -30 -31 -34 0
-4 -6 -13 -17 -23 -24 -31 -34 0
-4 -6 -19 -21 -27 -30 -31 -34 0
-10 -12 -14 -17 -23 -24 -32 -34 0
-10 -12 -20 -21 -27 -30 -32 -34 0
-3 -5 -7 -11 -20 -21 -25 -26 0
-4 -5 -9 -10 -19 -23 -25 -27 0
-3 -6 -7 -12 -20 -21 -31 -32 0
-4 -6 -9 -10 -19 -24 -31 -33 0
-3 -6 -7 -12 -26 -27 -31 -32 0
-5 -6 -9 -11 -25 -30 -31 -33 0
-4 -6 -7 -12 -26 -28 -31 -32 0
-5 -6 -10 -11 -25 -30 -31 -34 0
-4 -6 -13 -18 -27 -28 -31 -33 0
-5 -6 -16 -17 -25 -30 -31 -34 0
-10 -12 -14 -18 -27 -28 -32 -33 0
-11 -12 -16 -17 -26 -30 -32 -34 0
-3 -5 -9 -10 -16 -17 0
-13 -14 -20 -21 -25 -27 0
-3 -6 -9 -10 -16 -18 0
-13 -14 -20 -21 -31 -33 0
-3 -6 -9 -11 -17 -18 0
-13 -14 -26 -27 -31 -33 0
-4 -6 -10 -11 -23 -24 0
-19 -20 -26 -28 -31 -34 0
-4 -6 -16 -17 -23 -24 0
-19 -21 -27 -28 -31 -34 0
-10 -12 -16 -17 -23 -24 0
-20 -21 -27 -28 -32 -34 0
-9 -11 -14 -17 -19 -20 -25 -27 0
-3 -5 -10 -11 -13 -16 -19 -21 0
-9 -12 -14 -18 -19 -20 -31 -33 0
-3 -6 -10 -12 -13 -16 -19 -21 0
-9 -12 -14 -18 -25 -26 -31 -33 0
-3 -6 -11 -12 -13 -17 -25 -27 0
-10 -12 -20 -24 -25 -26 -31 -34 0
-4 -6 -11 -12 -19 -23 -25 -28 0
-16 -18 -21 -24 -25 -27 -31 -34 0
-4 -6 -17 -18 -19 -23 -25 -28 0
-16 -18 -21 -24 -26 -27 -32 -34 0
-10 -12 -17 -18 -20 -23 -26 -28 0
-3 -5 -14 -17 -19 -20 -25 -27 0
-3 -5 -10 -11 -13 -16 -25 -27 0
-3 -6 -14 -18 -19 -20 -31 -33 0
-3 -6 -10 -12 -13 -16 -31 -33 0
-3 -6 -14 -18 -25 -26 -31 -33 0
-3 -6 -11 -12 -13 -17 -31 -33 0
-4 -6 -20 -24 -25 -26 -31 -34 0
-4 -6 -11 -12 -19 -23 -31 -34 0
-4 -6 -21 -24 -25 -27 -31 -34 0
-4 -6 -17 -18 -19 -23 -31 -34 0
-10 -12 -21 -24 -26 -27 -32 -34 0
-10 -12 -17 -18 -20 -23 -32 -34 0
-3 -5 -10 -11 -14 -16 -20 -21 0
-9 -10 -14 -16 -19 -20 -25 -27 0
-3 -6 -10 -12 -14 -16 -20 -21 0
-9 -10 -14 -16 -19 -20 -31 -33 0
-3 -6 -11 -12 -14 -17 -26 -27 0
-9 -11 -14 -17 -25 -26 -31 -33 0
-4 -6 -11 -12 -20 -23 -26 -28 0
-10 -11 -20 -23 -25 -26 -31 -34 0
-4 -6 -17 -18 -21 -23 -27 -28 0
-16 -17 -21 -23 -25 -27 -31 -34 0
-10 -12 -17 -18 -21 -23 -27 -28 0
-16 -17 -21 -23 -26 -27 -32 -34 0
-4 -5 -9 -10 -13 -17 -25 -27 0
-3 -5 -13 -17 -20 -21 -25 -26 0
-4 -6 -9 -10 -13 -18 -31 -33 0
-3 -6 -13 -18 -20 -21 -31 -32 0
-5 -6 -9 -11 -13 -18 -31 -33 0
-3 -6 -13 -18 -26 -27 -31 -32 0
-5 -6 -10 -11 -19 -24 -31 -34 0
-4 -6 -19 -24 -26 -28 -31 -32 0
-5 -6 -16 -17 -19 -24 -31 -34 0
-4 -6 -19 -24 -27 -28 -31 -33 0
-11 -12 -16 -17 -20 -24 -32 -34 0
-10 -12 -20 -24 -27 -28 -32 -33 0
-9 -10 -13 -16 -25 -27 0
-3 -5 -14 -17 -20 -21 0
-9 -10 -13 -16 -31 -33 0
-3 -6 -14 -18 -20 -21 0
-9 -11 -13 -17 -31 -33 0
-3 -6 -14 -18 -26 -27 0
-10 -11 -19 -23 -31 -34 0
-4 -6 -20 -24 -26 -28 0
-16 -17 -19 -23 -31 -34 0
-4 -6 -21 -24 -27 -28 0
-16 -17 -20 -23 -32 -34 0
-10 -12 -21 -24 -27 -28 0
-4 -5 -7 -11 -13 -16 0
-14 -17 -19 -23 -25 -26 0
-4 -6 -7 -12 -13 -16 0
-14 -18 -19 -24 -31 -32 0
-5 -6 -7 -12 -13 -17 0
-14 -18 -25 -30 -31 -32 0
-5 -6 -7 -12 -19 -23 0
-20 -24 -25 -30 -31 -32 0
-5 -6 -13 -18 -19 -23 0
-21 -24 -25 -30 -31 -33 0
-11 -12 -14 -18 -20 -23 0
-21 -24 -26 -30 -32 -33 0
-4 -5 -9 -10 -14 -16 -19 -21 -25 -26 0
-4 -5 -9 -11 -14 -16 -20 -21 -25 -26 0
-4 -6 -9 -10 -14 -16 -19 -21 -31 -32 0
-4 -6 -9 -12 -14 -16 -20 -21 -31 -32 0
-5 -6 -9 -11 -14 -17 -25 -27 -31 -32 0
-5 -6 -9 -12 -14 -17 -26 -27 -31 -32 0
-5 -6 -10 -11 -20 -23 -25 -28 -31 -32 0
-5 -6 -10 -12 -20 -23 -26 -28 -31 -32 0
-5 -6 -16 -17 -21 -23 -25 -28 -31 -33 0
-5 -6 -16 -18 -21 -23 -27 -28 -31 -33 0
-11 -12 -16 -17 -21 -23 -26 -28 -32 -33 0
-11 -12 -16 -18 -21 -23 -27 -28 -32 -33 0
-9 -10 -13 -16 -20 -21 -25 -26 0
-4 -5 -9 -10 -14 -17 -20 -21 0
-9 -10 -13 -16 -20 -21 -31 -32 0
-4 -6 -9 -10 -14 -18 -20 -21 0
-9 -11 -13 -17 -26 -27 -31 -32 0
-5 -6 -9 -11 -14 -18 -26 -27 0
-10 -11 -19 -23 -26 -28 -31 -32 0
-5 -6 -10 -11 -20 -24 -26 -28 0
-16 -17 -19 -23 -27 -28 -31 -33 0
-5 -6 -16 -17 -21 -24 -27 -28 0
-16 -17 -20 -23 -27 -28 -32 -33 0
-11 -12 -16 -17 -21 -24 -27 -28 0
-4 -5 -9 -11 -13 -16 -19 -21 0
-9 -11 -14 -17 -19 -21 -25 -26 0
-4 -6 -9 -12 -13 -16 -19 -21 0
-9 -12 -14 -18 -19 -21 -31 -32 0
-5 -6 -9 -12 -13 -17 -25 -27 0
-9 -12 -14 -18 -25 -27 -31 -32 0
-5 -6 -10 -12 -19 -23 -25 -28 0
-10 -12 -20 -24 -25 -28 -31 -32 0
-5 -6 -16 -18 -19 -23 -25 -28 0
-16 -18 -21 -24 -25 -28 -31 -33 0
-11 -12 -16 -18 -20 -23 -26 -28 0
-16 -18 -21 -24 -26 -28 -32 -33 0
-7 -11 -13 -14 -20 -23 0
-7 -10 -16 -17 -19 -23 0
-7 -12 -13 -14 -20 -24 0
-7 -10 -16 -18 -19 -24 0
-7 -12 -13 -14 -26 -30 0
-7 -11 -17 -18 -25 -30 0
-7 -12 -19 -20 -26 -30 0
-7 -11 -23 -24 -25 -30 0
-13 -18 -19 -21 -27 -30 0
-13 -17 -23 -24 -25 -30 0
-14 -18 -20 -21 -27 -30 0
-14 -17 -23 -24 -26 -30 0
-2 -4 -7 -9 -14 -18 -25 -30 -33 -34 -35 0
-2 -3 -4 -7 -12 -19 -23 -28 -30 -33 -35 0
-2 -3 -7 -10 -13 -14 -23 -24 -28 -30 -33 -35 0
-2 -4 -7 -9 -13 -14 -23 -24 -27 -30 -34 -35 0
-2 -3 -7 -11 -14 -16 -21 -23 -26 -28 -31 -32 0
-5 -6 -9 -11 -14 -16 -21 -23 -26 -30 -34 -35 0
-9 -11 -13 -16 -21 -24 -25 -30 -34 -35 0
-2 -3 -7 -12 -13 -16 -21 -24 -26 -28 0
-2 -5 -7 -10 -14 -18 -25 -30 -34 -35 0
-2 -3 -7 -12 -19 -23 -27 -30 -32 -35 0
-14 -17 -19 -20 -25 -28 -34 -35 0
-2 -3 -9 -12 -17 -18 -20 -23 0
-2 -3 -10 -11 -16 -18 -26 -30 -33 -35 0
-2 -4 -7 -11 -19 -21 -26 -27 -34 -35 0
-2 -3 -10 -12 -16 -17 -27 -30 -32 -35 0
-2 -5 -7 -10 -20 -21 -25 -27 -34 -35 0
-2 -3 -11 -12 -16 -17 -21 -24 -32 -34 0
-3 -5 -13 -16 -20 -21 -25 -26 -34 -35 0
-9 -11 -14 -16 -19 -21 -25 -26 -34 -35 0
-2 -3 -11 -12 -16 -18 -21 -23 -26 -28 0
-2 -3 -21 -24 -26 -30 0
-7 -11 -13 -16 -34 -35 0
-2 -3 -26 -28 -33 -34 0
-3 -4 -9 -11 -34 -35 0
-2 -4 -5 -6 -7 -9 -14 -18 -21 -23 -25 -28 0
-9 -12 -14 -16 -19 -23 -28 -30 -31 -32 -33 -35 0
-2 -4 -6 -7 -11 -17 -18 -27 -28 -31 -33 0
-4 -6 -9 -10 -19 -20 -26 -30 -31 -33 -35 0
-2 -4 -7 -9 -14 -18 -23 -24 -25 -28 -30 -33 -35 0
-2 -4 -7 -9 -12 -13 -14 -19 -23 -28 -30 -33 -35 0
-2 -4 -7 -9 -14 -16 -19 -24 -27 -30 0
-7 -10 -13 -18 -21 -23 -28 -30 -33 -35 0
-9 -10 -13 -18 -19 -20 -23 -28 -30 -33 -35 0
-2 -4 -7 -9 -14 -17 -18 -19 -24 -27 -28 0
-3 -4 -14 -18 -20 -23 -28 -30 -33 -35 0
-2 -4 -7 -9 -14 -17 -19 -23 -33 -34 0
-7 -11 -16 -18 -19 -21 -28 -30 -33 -35 0
-2 -4 -7 -9 -16 -18 -19 -21 -26 -30 0
-2 -4 -7 -10 -13 -18 -20 -23 -27 -30 -33 -35 0
-2 -4 -7 -10 -14 -17 -19 -24 -27 -30 -33 -35 0
-2 -4 -7 -11 -12 -14 -16 -17 -19 -21 -27 -30 -32 -33 0
-4 -5 -7 -10 -16 -18 -20 -21 -23 -25 -26 -30 -33 -35 0
-4 -5 -16 -18 -20 -21 -25 -26 -30 -33 -35 0
-2 -4 -7 -11 -12 -16 -17 -19 -21 -32 -33 0
-2 -4 -7 -11 -16 -17 -19 -24 -26 -30 0
-7 -11 -13 -18 -20 -21 -26 -30 -33 -35 0
-2 -4 -9 -11 -14 -17 -33 -34 0
-3 -4 -20 -23 -26 -28 -33 -35 0
-7 -10 -21 -23 -25 -28 -33 -35 0
-2 -4 -9 -12 -14 -16 -27 -30 0
-2 -4 -11 -12 -16 -17 -20 -24 0
-13 -17 -20 -21 -25 -26 -33 -35 0
-2 -5 -20 -21 -33 -35 0
-2 -4 -16 -17 -32 -35 0
-7 -11 -19 -21 -33 -35 0
-2 -4 -16 -18 -26 -30 0
-2 -4 -26 -27 -33 -34 0
-3 -4 -10 -11 -33 -35 0
-2 -4 -27 -28 -32 -33 0
-4 -5 -9 -10 -33 -35 0
-2 -5 -7 -9 -14 -16 -21 -23 -31 -34 0
-3 -6 -14 -16 -21 -23 -28 -30 -32 -35 0
-2 -5 -7 -9 -14 -17 -21 -24 -25 -30 0
-7 -12 -13 -16 -20 -23 -28 -30 -32 -35 0
-2 -5 -7 -9 -14 -17 -25 -28 -33 -34 0
-3 -4 -9 -12 -20 -23 -28 -30 -32 -35 0
-2 -5 -7 -9 -14 -17 -27 -28 -31 -34 0
-3 -6 -9 -10 -20 -23 -28 -30 -32 -35 0
-2 -6 -7 -12 -16 -18 -19 -23 -28 -30 -32 -35 0
-2 -5 -7 -9 -14 -18 -19 -21 -25 -30 -31 -35 0
-3 -4 -9 -12 -14 -17 -28 -30 -32 -35 0
-2 -5 -7 -9 -20 -23 -25 -28 -33 -34 0
-2 -5 -7 -9 -20 -23 -31 -33 0
-4 -6 -14 -17 -28 -30 -32 -35 0
-3 -4 -10 -12 -20 -23 -27 -30 -32 -35 0
-2 -5 -7 -10 -14 -17 -25 -27 -33 -34 0
-2 -5 -7 -10 -16 -17 -20 -21 -31 -33 0
-4 -6 -16 -17 -20 -21 -27 -30 -32 -35 0
-7 -12 -13 -17 -20 -21 -27 -30 -32 -35 0
-2 -5 -7 -10 -16 -17 -20 -24 -25 -30 0
-2 -5 -7 -10 -20 -23 -25 -27 -33 -34 0
-3 -4 -10 -12 -14 -17 -27 -30 -32 -35 0
-4 -5 -9 -12 -14 -16 -27 -30 -32 -35 0
-2 -5 -7 -10 -21 -23 -25 -28 -32 -33 0
-2 -5 -9 -12 -14 -16 -21 -23 -28 -30 0
-7 -9 -14 -16 -21 -23 -25 -28 -32 -35 0
-2 -5 -9 -12 -20 -23 -27 -30 0
-7 -10 -14 -17 -25 -28 -32 -35 0
-3 -6 -14 -17 -21 -24 -32 -35 0
-2 -5 -13 -16 -20 -23 -31 -34 0
-2 -5 -16 -18 -20 -23 -28 -30 0
-7 -9 -14 -17 -19 -21 -32 -35 0
-2 -6 -7 -9 -10 -11 -14 -16 -27 -30 -31 -35 0
-2 -6 -7 -10 -21 -23 -26 -27 -28 -30 -31 -35 0
-2 -6 -7 -9 -10 -14 -16 -21 -23 -27 -30 -31 -35 0
-2 -6 -7 -10 -14 -16 -21 -23 -27 -28 -30 -31 -35 0
-3 -6 -7 -10 -20 -21 -23 -28 -30 -31 -35 0
-2 -6 -7 -9 -14 -16 -17 -27 -30 -31 -34 0
-3 -6 -7 -10 -21 -23 -28 -30 -31 -35 0
-2 -6 -7 -9 -14 -16 -27 -30 -31 -34 0
-2 -6 -7 -9 -14 -17 -21 -24 -31 -35 0
-2 -6 -13 -16 -20 -23 -28 -30 -31 -35 0
-4 -6 -13 -14 -20 -23 -28 -30 -31 -35 0
-2 -6 -7 -9 -14 -17 -23 -24 -31 -33 0
-2 -6 -7 -9 -17 -18 -20 -23 -31 -33 0
-4 -6 -14 -17 -19 -20 -28 -30 -31 -35 0
-2 -6 -7 -10 -14 -17 -28 -30 -31 -35 0
-2 -6 -7 -9 -20 -23 -27 -30 -31 -35 0
-9 -12 -19 -23 -27 -30 -31 -35 0
-2 -6 -7 -10 -14 -18 -25 -28 0
-2 -6 -7 -10 -16 -18 -20 -21 -25 -27 0
-10 -12 -16 -17 -19 -21 -27 -30 -31 -35 0
-2 -6 -7 -10 -16 -18 -21 -24 -26 -30 -31 -33 0
-4 -6 -7 -11 -13 -16 -19 -21 -27 -30 -31 -35 0
-4 -6 -10 -11 -19 -21 -27 -30 -31 -35 0
-2 -6 -7 -10 -16 -18 -26 -27 -31 -33 0
-2 -6 -7 -11 -16 -17 -26 -30 -31 -34 0
-3 -6 -7 -11 -20 -21 -26 -30 -31 -35 0
-2 -6 -7 -11 -17 -18 -20 -21 -31 -33 0
-4 -6 -16 -17 -19 -20 -26 -30 -31 -35 0
-2 -6 -7 -11 -17 -18 -26 -27 -28 -31 -34 0
-3 -6 -9 -10 -11 -19 -20 -26 -30 -31 -35 0
-3 -4 -6 -9 -11 -19 -20 -26 -30 -31 -35 0
-2 -6 -7 -11 -17 -18 -26 -28 -31 -33 -34 0
-2 -6 -9 -11 -14 -18 -19 -23 -26 -28 -31 -33 0
-4 -6 -9 -11 -14 -18 -19 -23 -26 -28 -31 -35 0
-2 -6 -10 -11 -13 -17 -20 -24 -31 -34 0
-3 -6 -13 -17 -20 -24 -26 -27 -31 -35 0
-3 -6 -10 -11 -13 -16 -21 -24 -31 -35 0
-2 -6 -13 -16 -21 -24 -26 -27 -31 -34 0
-3 -6 -7 -11 -21 -24 -31 -35 0
-2 -6 -13 -16 -26 -30 -31 -34 0
-3 -6 -9 -11 -13 -14 -20 -24 -31 -35 0
-2 -6 -13 -17 -23 -24 -26 -28 -31 -34 0
-3 -4 -26 -28 -32 -33 0
-4 -5 -9 -11 -33 -34 0
-3 -5 -6 -7 -10 -11 -21 -24 -25 -26 -31 -34 0
-3 -6 -11 -12 -13 -16 -26 -27 -30 -31 -32 -34 0
-9 -12 -14 -16 -19 -21 -25 -30 -32 -34 0
-3 -5 -7 -12 -16 -18 -21 -23 -25 -28 0
-16 -18 -19 -20 -25 -30 -32 -34 0
-3 -5 -7 -12 -17 -18 -19 -21 0
-7 -10 -14 -18 -25 -30 -32 -34 0
-3 -5 -7 -12 -19 -23 -27 -30 0
-3 -5 -11 -12 -13 -14 -16 -21 -24 -32 -34 0
-3 -5 -13 -16 -21 -23 -24 -25 -26 -32 -34 0
-3 -5 -11 -12 -13 -16 -21 -24 -25 -28 0
-9 -12 -13 -16 -21 -24 -25 -26 -32 -34 0
-3 -5 -13 -16 -21 -23 -25 -26 -32 -34 0
-3 -5 -11 -12 -14 -16 -21 -24 -32 -34 0
-9 -12 -13 -16 -27 -30 -31 -34 0
-3 -6 -7 -10 -21 -24 -25 -28 0
-9 -12 -13 -17 -23 -24 -27 -28 -31 -34 0
-3 -6 -9 -10 -13 -14 -20 -24 -25 -28 0
-3 -6 -13 -14 -20 -24 -27 -28 -31 -34 0
-3 -6 -9 -10 -13 -17 -23 -24 -31 -34 0
-3 -6 -9 -10 -20 -24 -25 -26 -31 -34 0
-3 -6 -11 -12 -13 -17 -27 -28 -31 -34 0
-13 -14 -26 -28 -31 -34 0
-3 -6 -9 -11 -23 -24 0
-3 -6 -10 -12 -13 -16 -20 -21 -25 -26 0
-11 -12 -16 -17 -21 -24 -25 -27 -31 -34 0
-5 -6 -10 -11 -21 -24 -25 -27 -31 -34 0
-3 -6 -10 -12 -13 -16 -26 -27 -31 -32 0
-9 -11 -13 -16 -21 -23 -31 -34 0
-3 -6 -14 -16 -21 -24 -26 -28 0
-4 -5 -11 -12 -16 -18 0
-19 -21 -25 -26 -32 -33 0
-4 -6 -9 -11 -14 -18 -21 -23 -26 -28 0
-9 -11 -14 -16 -19 -23 -26 -28 -31 -33 0
-4 -6 -9 -11 -23 -24 -27 -28 0
-9 -10 -13 -14 -26 -28 -31 -33 0
-11 -12 -16 -18 -21 -23 -25 -28 -31 -33 0
-4 -6 -9 -12 -14 -16 -19 -21 -25 -26 0
-4 -6 -9 -12 -27 -28 0
-9 -10 -25 -28 -31 -33 0
-4 -6 -10 -11 -17 -18 0
-19 -20 -26 -27 -31 -33 0
-20 -21 -25 -26 -31 -33 0
-4 -6 -11 -12 -16 -17 0
-11 -12 -16 -18 -19 -21 -23 -26 -28 -31 -32 0
-5 -6 -9 -11 -14 -16 -18 -19 -21 -25 -26 0
-9 -12 -14 -16 -21 -23 -24 -25 -28 -31 -32 0
-5 -6 -9 -12 -13 -14 -16 -21 -23 -25 -28 0
-10 -12 -17 -18 -20 -23 -25 -28 -31 -32 0
-5 -6 -9 -12 -14 -17 -19 -20 -25 -27 0
-5 -6 -10 -11 -16 -18 0
-19 -21 -26 -27 -31 -32 0
-14 -17 -19 -23 -31 -32 0
-5 -6 -14 -18 -20 -23 0
-7 -10 -16 -18 -25 -30 0
-7 -12 -19 -21 -27 -30 0
-7 -11 -13 -18 -23 -24 0
-13 -14 -19 -24 -26 -30 0
-7 -11 -17 -18 -19 -24 0
-13 -18 -19 -20 -26 -30 0
-11 -12 -13 -18 -19 -23 0
-14 -18 -19 -24 -25 -26 0
